NAME : traveling-santa-2018-prime-paths.31863.tour
COMMENT : Length = 31863
COMMENT : Found by LKH [Keld Helsgaun] Mon Jun 27 15:57:36 2022
TYPE : TOUR
DIMENSION : 100
TOUR_SECTION
1
13
95
54
97
42
19
62
59
77
81
18
10
48
30
34
64
93
78
4
74
73
11
29
6
50
98
66
82
47
5
75
56
7
60
89
94
44
15
57
58
63
96
80
39
20
12
51
53
65
22
61
45
92
70
84
46
52
27
55
83
23
28
35
100
87
31
14
41
85
67
49
38
71
90
32
88
91
69
43
16
68
21
40
72
3
79
25
2
36
24
8
9
99
33
37
26
76
86
17
-1
EOF
